* GENERATED BY CHARMM-GUI (http://www.charmm-gui.org) v3.7 on May, 16. 2026. JOBID=7891412003
* INPUT GENERATION
* 
 
DIMENS CHSIZE 5000000 MAXRES 3000000

! Read topology and parameter files
stream toppar.str

! Read PSF
open read unit 10 card name step5_assembly.psf
read psf  unit 10 card

! Read Coordinate
open read unit 10 card name step5_assembly.crd
read coor unit 10 card

! Read the system information
stream step5_assembly.str
stream step3_nlipids_upper.prm
stream step3_nlipids_lower.prm
if islconj .eq. YES stream step3_lipid_conjugate.str

!
! Short minimization
!

stream step5_input_minimization.str
crystal free

! Rewrite PSF and Coordinates
write psf  card name step5_assembly.psf
write coor pdb  name step5_assembly.pdb
write coor card name step5_assembly.crd

stop
