* GENERATED BY CHARMM-GUI (http://www.charmm-gui.org) v3.7 on May, 16. 2026. JOBID=7891412003
* GENERATES SINGLE GLYCOLIPID STRUCTURE
*

DIMENS CHSIZE 5000000 MAXRES 3000000

! Read topology and parameter files
stream toppar.str

stream step3_size.str
stream step3_nlipids_upper.prm
stream step3_nlipids_lower.prm

open write card unit 51 name step3_lipid_conjugate.str

set nlconj = 0
set chrglipaup = 0
set chrglipadn = 0
set chrgcoreup = 0
set chrgcoredn = 0
set chrgoantiup = 0
set chrgoantidn = 0

! generate structure of LPSA
calc nlconj = @nlconj + @nlpsatop + @nlpsabot
calc chrglipaup = @chrglipaup + -4 * @nlpsatop
calc chrglipadn = @chrglipadn + -4 * @nlpsabot
calc chrgcoreup = @chrgcoreup + -5 * @nlpsatop
calc chrgcoredn = @chrgcoredn + -5 * @nlpsabot
calc chrgoantiup = @chrgoantiup + 0 * @nlpsatop
calc chrgoantidn = @chrgoantidn + 0 * @nlpsabot
set nlpsacore = 0
set lpsalipa = eclipa
stream lipid_lib/lpsa/lpsa.str


write title unit 51
* set nlconj = @nlconj
* set chrglipaup = @chrglipaup
* set chrglipadn = @chrglipadn
* set chrgcoreup = @chrgcoreup
* set chrgcoredn = @chrgcoredn
* set chrgoantiup = @chrgoantiup
* set chrgoantidn = @chrgoantidn
* set nlpsacore = @nlpsacore
* set lpsalipa = @lpsalipa
*

stop
