* ERG main file generated by charmmgen
* author: Victor Bazterra 2004 CHPC
* 

Read rtf card name ERG_CHARMM.rtf

Read param card name ERG_CHARMM.prm

Read sequence card
* Reading the coordinates of residue
* 
    1
ERG
Generate ERG setup
Read coor card free
* Residues coordinate
* 
   78
    1    1 ERG  C     -6.31800  19.79700  -1.85600
    2    1 ERG  C1    -6.64200  20.48900  -3.17200
    3    1 ERG  O     -7.34100  20.07600  -0.88900
    4    1 ERG  C2    -7.64000  18.87100  -0.21000
    5    1 ERG  C3    -9.14300  18.73300   0.08300
    6    1 ERG  C4    -9.72400  19.61000   1.19100
    7    1 ERG  C5   -11.00400  18.85600   1.55900
    8    1 ERG  C6   -10.58800  17.39000   1.47300
    9    1 ERG  N     -9.50800  17.38200   0.50600
   10    1 ERG  C7    -8.83700  16.23700   0.12400
   11    1 ERG  O1    -9.22200  15.12700   0.49300
   12    1 ERG  C8    -7.55400  16.42000  -0.75200
   13    1 ERG  N1    -7.26000  17.81900  -1.08200
   14    1 ERG  C9    -6.38100  18.27300  -2.02700
   15    1 ERG  O2    -5.71800  17.59800  -2.79700
   16    1 ERG  C10   -4.57300  21.44800  -1.21000
   17    1 ERG  O3    -5.26500  22.42900  -1.46800
   18    1 ERG  N2    -5.02300  20.15400  -1.31700
   19    1 ERG  H     -4.34100  19.40400  -1.26100
   20    1 ERG  C11   -0.89300  22.80700   0.95900
   21    1 ERG  N3    -1.86600  21.84400   1.47800
   22    1 ERG  C12   -3.16600  21.98500   0.79400
   23    1 ERG  C13   -3.13600  21.60000  -0.69800
   24    1 ERG  C14   -2.34800  20.33600  -0.95200
   25    1 ERG  C15   -1.59900  19.75800   0.00800
   26    1 ERG  C16   -0.96200  18.43400  -0.20600
   27    1 ERG  C17   -1.24200  17.48500  -1.20000
   28    1 ERG  C18   -0.57700  16.25000  -1.22300
   29    1 ERG  C19    0.38300  15.90900  -0.26000
   30    1 ERG  C20    0.65000  16.86100   0.72700
   31    1 ERG  N4     1.50800  16.85400   1.80500
   32    1 ERG  C21    1.42600  18.04800   2.49000
   33    1 ERG  C22    0.49600  18.83000   1.84500
   34    1 ERG  C23    0.00400  18.08600   0.74900
   35    1 ERG  C24    0.00800  20.21700   2.06700
   36    1 ERG  C25   -1.41000  20.42100   1.41100
   37    1 ERG  H1     2.11700  16.08600   2.05000
   38    1 ERG  O4    -6.83000  18.77600   0.93800
   39    1 ERG  H2    -7.38800  18.33200   1.59600
   40    1 ERG  C26   -6.35500  15.75300  -0.04100
   41    1 ERG  C27   -5.67000  14.71300  -0.89900
   42    1 ERG  C28   -6.37500  13.58500  -1.33900
   43    1 ERG  C29   -5.74400  12.61500  -2.11800
   44    1 ERG  C30   -4.40200  12.76100  -2.46200
   45    1 ERG  C31   -3.69000  13.87600  -2.02300
   46    1 ERG  C32   -4.31900  14.84700  -1.24400
   47    1 ERG  H3    -5.87400  20.27500  -3.88600
   48    1 ERG  H4    -6.69900  21.54600  -3.01500
   49    1 ERG  H5    -7.58100  20.13300  -3.54100
   50    1 ERG  H6    -9.54200  19.03200  -0.86400
   51    1 ERG  H7    -9.94200  20.59400   0.83300
   52    1 ERG  H8    -9.05900  19.75800   2.01600
   53    1 ERG  H9   -11.78900  19.07300   0.86500
   54    1 ERG  H10  -11.38600  19.12600   2.52100
   55    1 ERG  H11  -11.40300  16.78400   1.13700
   56    1 ERG  H12  -10.29200  16.99200   2.42100
   57    1 ERG  H13   -7.73800  15.94200  -1.69100
   58    1 ERG  H14   -1.29200  23.79700   1.04200
   59    1 ERG  H15   -0.68900  22.58900  -0.06900
   60    1 ERG  H16    0.01300  22.73900   1.52500
   61    1 ERG  H17   -3.47800  23.00600   0.87200
   62    1 ERG  H18   -3.84300  21.30900   1.27400
   63    1 ERG  H19   -2.63900  22.38400  -1.23000
   64    1 ERG  H20   -2.38400  19.90300  -1.88800
   65    1 ERG  H21   -1.94600  17.69800  -1.92400
   66    1 ERG  H22   -0.80100  15.57400  -1.97000
   67    1 ERG  H23    0.86900  14.99900  -0.27900
   68    1 ERG  H24    1.96400  18.30700   3.33200
   69    1 ERG  H25    0.70000  20.90700   1.63000
   70    1 ERG  H26   -0.07300  20.38900   3.12000
   71    1 ERG  H27   -2.08000  19.85900   2.02800
   72    1 ERG  H28   -6.70700  15.28100   0.85300
   73    1 ERG  H29   -5.63900  16.51900   0.17000
   74    1 ERG  H30   -7.36900  13.47100  -1.08500
   75    1 ERG  H31   -6.27200  11.78900  -2.44000
   76    1 ERG  H32   -3.93600  12.04500  -3.04100
   77    1 ERG  H33   -2.69500  13.98300  -2.27500
   78    1 ERG  H34   -3.78600  15.66900  -0.92000
Energy ihbfrq 0 inbfrq -1
Open write card unit 14 name tmp.out
Write energy card unit 14
* ERG energy before the optimization
* 
Minimise Abnr Nstep 5000 Tolgrd 0.00001
Write energy card unit 14
* ERG energy after optimization
* 
Write coor card unit 14
* ERG energy after optimization
* 
